SDVRP instances/custom_instances/p04_8_split0.vrp
NAME:p04_8_split
BEST_KNOWN: 0
COMMENT: 0
DIMENSION: 721
CAPACITY: 200
EDGE_WEIGHT_FORMAT: FUNCTION
EDGE_WEIGHT_TYPE: EXACT_2D
NODE_COORD_SECTION
1 0.00000 0.00000
2 -9 -27
3 -9 -27
4 -9 -27
5 -9 -27
6 -9 -27
7 -9 -27
8 13 7
9 13 7
10 13 7
11 8 -49
12 8 -49
13 8 -49
14 1 -12
15 1 -12
16 1 -12
17 1 -12
18 1 -12
19 1 -12
20 42 38
21 42 38
22 42 38
23 42 38
24 42 38
25 -15 19
26 -15 19
27 -15 19
28 -15 19
29 -15 19
30 -15 19
31 -15 19
32 -3 28
33 -3 28
34 -3 28
35 -3 28
36 -3 28
37 -3 28
38 -3 28
39 -27 24
40 -27 24
41 -27 24
42 -27 24
43 -27 24
44 -27 24
45 38 -50
46 38 -50
47 38 -50
48 38 -50
49 38 -50
50 38 -50
51 13 -19
52 13 -19
53 13 -19
54 13 -19
55 8 -19
56 8 -19
57 8 -19
58 8 -19
59 8 -19
60 8 -19
61 -37 10
62 -37 10
63 -37 10
64 -37 10
65 -37 10
66 -37 10
67 -16 -12
68 -16 -12
69 -16 -12
70 -16 -12
71 -16 -12
72 -16 -12
73 36 14
74 36 14
75 36 14
76 36 14
77 31 -49
78 31 -49
79 31 -49
80 31 -49
81 31 -49
82 -12 -3
83 -12 -3
84 -12 -3
85 -13 -46
86 -13 -46
87 -13 -46
88 -24 4
89 -24 4
90 -24 4
91 -24 4
92 -24 4
93 -24 4
94 -24 4
95 -14 -4
96 -14 -4
97 -14 -4
98 -14 -4
99 -14 -4
100 9 -40
101 9 -40
102 9 -40
103 9 -40
104 -16 -46
105 -16 -46
106 -16 -46
107 -16 -46
108 -16 -46
109 -16 -46
110 23 -11
111 23 -11
112 23 -11
113 -17 -30
114 -17 -30
115 -17 -30
116 -20 -46
117 -20 -46
118 -20 -46
119 -9 45
120 -9 45
121 -9 45
122 -9 45
123 33 -34
124 33 -34
125 33 -34
126 33 -34
127 33 -34
128 -10 30
129 -10 30
130 -10 30
131 -10 30
132 43 30
133 43 30
134 43 30
135 43 30
136 -15 29
137 -15 29
138 -15 29
139 -15 29
140 -15 29
141 -42 -3
142 -42 -3
143 -42 -3
144 -42 -3
145 -36 -26
146 -36 -26
147 -36 -26
148 -36 -26
149 -36 -26
150 -44 -49
151 -44 -49
152 -44 -49
153 -44 -49
154 -44 -49
155 -5 -9
156 -5 -9
157 -5 -9
158 -26 -48
159 -26 -48
160 40 -7
161 40 -7
162 40 -7
163 40 -7
164 40 -7
165 40 48
166 40 48
167 40 48
168 40 48
169 40 48
170 40 48
171 -8 -31
172 -8 -31
173 -8 -31
174 -8 -31
175 -9 -49
176 -9 -49
177 -40 -4
178 -40 -4
179 -40 -4
180 -40 -4
181 -40 -4
182 27 -15
183 27 -15
184 27 -15
185 -8 -36
186 -8 -36
187 -8 -36
188 -8 -36
189 -8 -36
190 -8 -36
191 -22 -46
192 -22 -46
193 -22 -46
194 -22 -46
195 26 -39
196 26 -39
197 26 -39
198 26 -39
199 -11 5
200 -11 5
201 -13 -33
202 -13 -33
203 -13 -33
204 -13 -33
205 -13 -33
206 -13 -33
207 -13 -33
208 2 26
209 2 26
210 2 26
211 2 26
212 2 26
213 2 26
214 2 26
215 5 -40
216 5 -40
217 5 -40
218 5 -40
219 30 -38
220 30 -38
221 30 -38
222 30 -38
223 4 -22
224 4 -22
225 4 -22
226 4 -22
227 4 -22
228 4 -22
229 4 -22
230 31 38
231 31 38
232 31 38
233 31 38
234 -36 -15
235 -36 -15
236 -36 -15
237 50 11
238 50 11
239 50 11
240 50 11
241 50 11
242 50 11
243 4 5
244 4 5
245 4 5
246 4 5
247 4 5
248 4 5
249 4 5
250 4 5
251 -14 49
252 -14 49
253 16 44
254 16 44
255 16 44
256 16 44
257 16 44
258 16 44
259 16 44
260 16 44
261 46 50
262 46 50
263 -37 -43
264 -37 -43
265 -37 -43
266 -37 -43
267 -37 -43
268 -37 -43
269 17 -49
270 17 -49
271 17 -49
272 17 -49
273 1 -15
274 1 -15
275 1 -15
276 1 -15
277 1 -15
278 1 -15
279 1 -15
280 40 -34
281 40 -34
282 40 -34
283 40 -34
284 30 16
285 30 16
286 30 16
287 17 4
288 17 4
289 17 4
290 17 4
291 17 4
292 17 4
293 17 4
294 -33 7
295 -33 7
296 -33 7
297 -33 7
298 -33 7
299 -33 7
300 -33 7
301 -33 7
302 -40 -15
303 -40 -15
304 -40 -15
305 -40 -15
306 28 -16
307 28 -16
308 -11 -44
309 -11 -44
310 -11 -44
311 48 13
312 48 13
313 48 13
314 48 13
315 -37 -21
316 -37 -21
317 -37 -21
318 -37 -21
319 -37 -21
320 -37 -21
321 -18 29
322 -18 29
323 -18 29
324 -18 29
325 -18 29
326 -5 34
327 -5 34
328 -5 34
329 -5 34
330 -5 34
331 -5 34
332 -5 34
333 14 19
334 14 19
335 14 19
336 27 -19
337 27 -19
338 27 -19
339 27 -19
340 27 -19
341 46 35
342 46 35
343 46 35
344 46 35
345 46 35
346 46 35
347 46 -22
348 46 -22
349 46 -22
350 46 -22
351 46 -22
352 -36 32
353 -36 32
354 -36 32
355 -36 32
356 -36 32
357 -29 -28
358 -29 -28
359 -29 -28
360 -29 -28
361 -29 -28
362 -29 -28
363 16 -26
364 16 -26
365 16 -26
366 16 -26
367 16 -26
368 16 -26
369 -49 -19
370 -49 -19
371 -49 -19
372 -49 -19
373 -49 -19
374 -49 -19
375 -49 -19
376 -22 33
377 -22 33
378 -22 33
379 21 0
380 21 0
381 21 0
382 21 0
383 21 0
384 21 0
385 44 -30
386 44 -30
387 44 -30
388 44 -30
389 44 -30
390 44 -30
391 44 -30
392 21 40
393 21 40
394 21 40
395 21 40
396 15 45
397 15 45
398 15 45
399 15 45
400 15 45
401 -30 0
402 -30 0
403 -30 0
404 -30 0
405 -30 0
406 -30 0
407 -30 0
408 38 25
409 38 25
410 38 25
411 38 25
412 49 42
413 49 42
414 49 42
415 49 42
416 49 42
417 49 42
418 -45 26
419 -45 26
420 -45 26
421 -45 26
422 -45 26
423 -45 26
424 -11 -50
425 -11 -50
426 -11 -50
427 -34 -44
428 -34 -44
429 -34 -44
430 -34 -44
431 -34 -44
432 31 8
433 31 8
434 31 8
435 31 8
436 31 8
437 40 -2
438 40 -2
439 40 -2
440 40 -2
441 40 -2
442 7 2
443 7 2
444 7 2
445 7 2
446 7 2
447 7 2
448 14 -3
449 14 -3
450 14 -3
451 14 -3
452 14 -3
453 14 -3
454 14 -3
455 3 19
456 3 19
457 -11 40
458 -11 40
459 -11 40
460 -11 40
461 -11 40
462 -20 -19
463 -20 -19
464 -20 -19
465 -43 27
466 -43 27
467 -43 27
468 -20 -36
469 -20 -36
470 -20 -36
471 -20 -36
472 -20 -36
473 -20 -36
474 -20 -36
475 -25 43
476 -25 43
477 -25 43
478 -36 47
479 -36 47
480 -36 47
481 -36 47
482 -4 -7
483 -4 -7
484 -39 44
485 -39 44
486 -39 44
487 -39 44
488 -39 44
489 33 47
490 33 47
491 33 47
492 31 3
493 31 3
494 31 3
495 31 3
496 -4 38
497 -4 38
498 -4 38
499 -4 38
500 -4 38
501 -4 38
502 -4 38
503 41 -22
504 41 -22
505 41 -22
506 41 -22
507 17 11
508 17 11
509 -29 -40
510 -29 -40
511 -29 -40
512 -29 -40
513 -1 -13
514 -1 -13
515 -1 -13
516 -1 -13
517 -1 -13
518 47 19
519 47 19
520 47 19
521 47 19
522 47 19
523 -43 -27
524 -43 -27
525 -43 -27
526 -43 -27
527 -43 -27
528 -43 -27
529 -43 -27
530 -34 49
531 -34 49
532 -34 49
533 -34 49
534 -34 49
535 -34 49
536 -34 49
537 -34 49
538 2 38
539 2 38
540 2 38
541 2 38
542 2 38
543 35 27
544 35 27
545 35 27
546 -21 6
547 -21 6
548 -21 6
549 -21 6
550 -21 6
551 2 -12
552 2 -12
553 2 -12
554 2 -12
555 2 -12
556 2 -12
557 25 12
558 25 12
559 25 12
560 25 12
561 25 12
562 25 12
563 25 12
564 27 -30
565 27 -30
566 27 -30
567 27 -30
568 27 -30
569 -31 -18
570 -31 -18
571 -31 -18
572 -36 34
573 -36 34
574 -36 34
575 -36 34
576 -36 34
577 -36 34
578 -36 34
579 -26 11
580 -26 11
581 -26 11
582 6 -32
583 6 -32
584 6 -32
585 6 -32
586 6 -32
587 18 -27
588 18 -27
589 18 -27
590 18 -27
591 18 -27
592 4 1
593 4 1
594 4 1
595 4 1
596 4 1
597 -40 30
598 -40 30
599 -40 30
600 -40 30
601 -40 30
602 -40 30
603 -21 -35
604 -21 -35
605 -21 -35
606 -5 22
607 -5 22
608 -5 22
609 20 47
610 20 47
611 20 47
612 20 47
613 47 0
614 47 0
615 47 0
616 47 0
617 47 0
618 44 -10
619 44 -10
620 44 -10
621 44 -10
622 44 -10
623 6 37
624 6 37
625 6 37
626 44 49
627 44 49
628 44 49
629 -4 -14
630 -4 -14
631 -4 -14
632 -4 -14
633 -4 -14
634 -4 -14
635 27 -49
636 27 -49
637 27 -49
638 27 -49
639 -3 -35
640 -3 -35
641 3 21
642 3 21
643 3 21
644 3 21
645 3 21
646 -18 -36
647 -18 -36
648 -18 -36
649 -32 9
650 -32 9
651 -32 9
652 -32 9
653 -32 9
654 -32 9
655 -32 9
656 -21 35
657 -21 35
658 -21 35
659 -21 35
660 17 -4
661 17 -4
662 17 -4
663 17 -4
664 17 -4
665 -13 -36
666 -13 -36
667 -13 -36
668 -13 -36
669 -13 -36
670 37 23
671 37 23
672 37 23
673 37 23
674 37 23
675 37 23
676 37 23
677 -22 -26
678 -22 -26
679 -22 -26
680 -22 -26
681 -31 45
682 -31 45
683 -31 45
684 -2 -12
685 -2 -12
686 -2 -12
687 -2 -12
688 -2 -12
689 -2 -12
690 -25 37
691 -25 37
692 -25 37
693 -25 37
694 -25 37
695 -25 37
696 -25 37
697 38 -43
698 38 -43
699 38 -43
700 38 -43
701 38 -43
702 16 -44
703 16 -44
704 16 -44
705 16 -44
706 16 -44
707 16 -44
708 16 -44
709 -33 14
710 -33 14
711 -33 14
712 -33 14
713 -33 14
714 -33 14
715 -33 14
716 -36 -15
717 -36 -15
718 -36 -15
719 -36 -15
720 -36 -15
721 -36 -15
DEMAND_SECTION
1 0
2 40
3 40
4 2
5 2
6 2
7 1
8 40
9 40
10 2
11 40
12 40
13 10
14 20
15 10
16 2
17 2
18 2
19 1
20 20
21 2
22 2
23 2
24 2
25 40
26 20
27 10
28 2
29 2
30 2
31 1
32 40
33 20
34 10
35 2
36 2
37 2
38 1
39 40
40 20
41 2
42 2
43 2
44 1
45 40
46 10
47 2
48 2
49 2
50 1
51 40
52 2
53 2
54 2
55 40
56 40
57 2
58 2
59 2
60 1
61 40
62 10
63 2
64 2
65 2
66 2
67 40
68 2
69 2
70 2
71 2
72 1
73 40
74 40
75 10
76 2
77 40
78 40
79 2
80 2
81 2
82 40
83 2
84 2
85 40
86 10
87 2
88 40
89 40
90 2
91 2
92 2
93 2
94 1
95 20
96 2
97 2
98 2
99 2
100 40
101 20
102 10
103 2
104 40
105 10
106 2
107 2
108 2
109 2
110 40
111 40
112 2
113 20
114 10
115 1
116 40
117 2
118 1
119 20
120 2
121 2
122 1
123 40
124 20
125 2
126 2
127 1
128 40
129 10
130 2
131 2
132 40
133 40
134 10
135 2
136 40
137 10
138 2
139 2
140 1
141 40
142 10
143 2
144 1
145 40
146 10
147 2
148 2
149 1
150 20
151 2
152 2
153 2
154 1
155 40
156 10
157 2
158 40
159 20
160 40
161 40
162 10
163 2
164 1
165 20
166 10
167 2
168 2
169 2
170 1
171 40
172 20
173 10
174 2
175 40
176 1
177 40
178 20
179 10
180 2
181 1
182 40
183 10
184 1
185 40
186 40
187 10
188 2
189 2
190 2
191 40
192 20
193 10
194 2
195 40
196 10
197 2
198 2
199 40
200 1
201 40
202 20
203 10
204 2
205 2
206 2
207 1
208 40
209 40
210 10
211 2
212 2
213 2
214 2
215 40
216 10
217 2
218 2
219 40
220 40
221 2
222 1
223 40
224 20
225 10
226 2
227 2
228 2
229 2
230 20
231 10
232 2
233 2
234 40
235 10
236 1
237 40
238 20
239 2
240 2
241 2
242 1
243 40
244 40
245 10
246 2
247 2
248 2
249 2
250 1
251 40
252 20
253 40
254 40
255 10
256 2
257 2
258 2
259 2
260 1
261 40
262 20
263 40
264 40
265 10
266 2
267 2
268 2
269 20
270 10
271 2
272 2
273 40
274 40
275 10
276 2
277 2
278 2
279 2
280 40
281 40
282 2
283 1
284 40
285 20
286 10
287 40
288 20
289 10
290 2
291 2
292 2
293 1
294 40
295 20
296 10
297 2
298 2
299 2
300 2
301 1
302 20
303 2
304 2
305 1
306 20
307 10
308 40
309 40
310 2
311 20
312 10
313 2
314 2
315 20
316 10
317 2
318 2
319 2
320 1
321 20
322 10
323 2
324 2
325 2
326 40
327 20
328 2
329 2
330 2
331 2
332 1
333 40
334 20
335 2
336 20
337 10
338 2
339 2
340 1
341 40
342 10
343 2
344 2
345 2
346 2
347 40
348 20
349 2
350 2
351 2
352 40
353 40
354 10
355 2
356 1
357 40
358 40
359 10
360 2
361 2
362 1
363 20
364 10
365 2
366 2
367 2
368 2
369 40
370 40
371 2
372 2
373 2
374 2
375 1
376 40
377 2
378 1
379 40
380 20
381 2
382 2
383 2
384 2
385 40
386 20
387 10
388 2
389 2
390 2
391 2
392 40
393 2
394 2
395 2
396 20
397 10
398 2
399 2
400 2
401 40
402 40
403 10
404 2
405 2
406 2
407 2
408 40
409 20
410 10
411 1
412 20
413 10
414 2
415 2
416 2
417 2
418 40
419 40
420 2
421 2
422 2
423 1
424 40
425 10
426 2
427 40
428 2
429 2
430 2
431 2
432 20
433 2
434 2
435 2
436 1
437 40
438 40
439 2
440 2
441 2
442 40
443 40
444 10
445 2
446 2
447 1
448 40
449 20
450 2
451 2
452 2
453 2
454 1
455 40
456 10
457 20
458 10
459 2
460 2
461 1
462 40
463 40
464 10
465 20
466 10
467 1
468 40
469 40
470 10
471 2
472 2
473 2
474 2
475 40
476 10
477 1
478 20
479 10
480 2
481 1
482 40
483 2
484 40
485 20
486 2
487 2
488 2
489 40
490 40
491 2
492 40
493 40
494 2
495 1
496 40
497 40
498 10
499 2
500 2
501 2
502 2
503 20
504 2
505 2
506 2
507 40
508 2
509 40
510 40
511 2
512 1
513 40
514 40
515 2
516 2
517 1
518 20
519 10
520 2
521 2
522 1
523 40
524 20
525 10
526 2
527 2
528 2
529 1
530 40
531 20
532 10
533 2
534 2
535 2
536 2
537 1
538 40
539 40
540 10
541 2
542 2
543 40
544 2
545 2
546 40
547 40
548 10
549 2
550 1
551 20
552 10
553 2
554 2
555 2
556 1
557 40
558 40
559 10
560 2
561 2
562 2
563 2
564 40
565 40
566 2
567 2
568 2
569 40
570 20
571 10
572 40
573 20
574 10
575 2
576 2
577 2
578 1
579 40
580 10
581 2
582 20
583 2
584 2
585 2
586 1
587 40
588 10
589 2
590 2
591 2
592 40
593 20
594 10
595 2
596 2
597 40
598 10
599 2
600 2
601 2
602 2
603 40
604 40
605 20
606 40
607 40
608 2
609 40
610 40
611 10
612 1
613 20
614 2
615 2
616 2
617 2
618 40
619 10
620 2
621 2
622 1
623 40
624 40
625 20
626 40
627 10
628 1
629 40
630 40
631 2
632 2
633 2
634 1
635 20
636 10
637 2
638 2
639 40
640 10
641 20
642 2
643 2
644 2
645 2
646 20
647 10
648 1
649 40
650 40
651 10
652 2
653 2
654 2
655 1
656 40
657 20
658 10
659 2
660 40
661 20
662 10
663 2
664 1
665 40
666 40
667 2
668 2
669 1
670 40
671 10
672 2
673 2
674 2
675 2
676 1
677 40
678 40
679 2
680 2
681 40
682 40
683 10
684 40
685 10
686 2
687 2
688 2
689 2
690 40
691 20
692 10
693 2
694 2
695 2
696 1
697 20
698 2
699 2
700 2
701 1
702 40
703 10
704 2
705 2
706 2
707 2
708 1
709 40
710 20
711 2
712 2
713 2
714 2
715 1
716 40
717 20
718 10
719 2
720 2
721 2
DEPOT_SECTION
1
-1
EOF