SDVRP instances/custom_instances/p04_8_split0.sol
720 -6 1 4 5 3 2 170 172 173 171 633 629 -8 9 7 287 288 286 444 442 446 -15 13 16 17 14 18 553 554 552 550 226 222 56 57 58 59 55 54 -22 19 23 20 21 343 342 340 344 345 341 131 133 134 132 672 673 671 675 670 -26 24 25 606 605 454 455 -29 30 27 28 322 324 323 321 320 655 658 656 657 375 376 377 38 -35 32 33 31 36 34 210 211 212 207 209 208 640 643 644 642 641 -37 325 329 330 331 498 501 499 495 496 497 500 127 128 129 130 607 -43 42 39 40 41 353 351 355 354 352 577 572 575 574 573 571 576 -46 44 49 47 45 48 80 78 79 77 76 635 637 634 636 364 363 365 366 367 52 -50 53 51 362 588 586 587 589 563 564 567 -71 70 68 318 319 316 314 315 317 148 146 147 144 145 358 357 361 359 356 360 -74 73 75 72 494 491 492 493 383 381 379 -81 83 82 98 94 66 67 69 463 462 461 -87 88 545 546 198 -93 89 91 92 90 299 295 296 298 294 293 297 300 649 650 652 653 651 654 648 548 547 549 -96 95 97 301 303 302 304 371 368 372 373 374 370 369 527 524 528 523 522 526 525 -109 110 111 182 183 181 306 305 335 337 336 338 339 -113 473 467 603 604 602 676 679 678 -114 112 426 430 428 429 427 151 153 150 149 152 266 262 263 267 264 265 -115 117 116 193 191 190 192 157 158 646 -126 123 122 218 221 219 220 195 194 197 196 590 -137 136 139 138 135 250 251 120 121 118 119 459 457 458 456 460 327 326 328 -160 613 614 612 616 615 438 437 436 439 440 380 378 382 -161 162 163 159 619 620 617 621 618 347 350 349 346 348 503 505 504 502 -179 176 178 180 177 141 142 143 140 406 404 403 405 400 402 -187 189 186 308 425 424 423 174 175 638 639 -188 185 184 664 203 200 204 206 205 201 202 -199 714 709 422 418 421 419 417 420 465 464 466 600 596 598 599 601 597 -213 537 540 541 539 538 624 623 622 -217 214 216 215 102 100 101 99 583 584 585 582 581 224 227 223 555 551 -225 228 10 12 11 270 269 271 268 702 701 703 707 706 705 704 -232 230 231 165 164 168 169 166 167 626 625 627 261 260 413 415 411 412 414 416 -245 249 247 248 246 242 243 244 593 594 592 591 595 -278 274 275 276 277 273 272 513 514 512 516 515 -283 669 674 407 410 409 408 543 542 544 -285 284 517 521 519 518 520 313 312 310 311 237 240 238 239 241 236 434 435 431 433 432 290 292 289 291 -309 307 85 84 86 108 106 105 107 104 103 665 667 666 668 -332 333 558 556 560 559 557 561 562 507 506 -334 229 489 488 490 609 608 611 610 -389 384 387 388 386 385 390 282 279 281 280 697 696 699 700 698 125 124 565 566 -392 393 391 394 254 256 253 257 259 252 258 255 396 399 395 397 398 -401 64 61 62 65 60 63 712 710 708 711 713 579 578 580 -445 443 441 659 660 662 661 663 453 452 447 451 449 448 450 -476 474 681 682 680 690 694 692 689 693 695 -481 482 155 154 156 632 630 631 628 685 683 684 686 687 688 -483 484 486 487 485 480 479 477 478 534 532 535 533 536 531 529 530 475 691 -568 570 569 718 234 717 719 720 716 235 233 715 -645 647 470 469 472 471 468 508 510 511 509 677 0 





OBJ=
4294.144
BEST_KNOWN=
0.000